
Gurobi 9.0.1 (linux64) logging started Thu Apr 30 19:49:34 2020

Gurobi Optimizer version 9.0.1 build v9.0.1rc0 (linux64)
Optimize a model with 32942 rows, 27380 columns and 605400 nonzeros
Model fingerprint: 0xd551bdb1
Variable types: 0 continuous, 27380 integer (27342 binary)
Coefficient statistics:
  Matrix range     [1e+00, 2e+01]
  Objective range  [1e+00, 1e+02]
  Bounds range     [1e+00, 1e+00]
  RHS range        [1e+00, 1e+00]

User MIP start produced solution with objective 1140 (0.84s)
Loaded user MIP start with objective 1140

Presolve removed 16423 rows and 10150 columns (presolve time = 5s) ...
Presolve removed 16424 rows and 10209 columns (presolve time = 12s) ...
Presolve removed 16464 rows and 10209 columns
Presolve time: 13.58s
Presolved: 16478 rows, 17171 columns, 367300 nonzeros
Variable types: 0 continuous, 17171 integer (17171 binary)

Root simplex log...

Iteration    Objective       Primal Inf.    Dual Inf.      Time
       0    0.0000000e+00   1.580000e+02   0.000000e+00     16s
    2850    5.9840009e+02   7.536941e+03   0.000000e+00     20s
    4825    6.0369458e+02   5.618822e+04   0.000000e+00     25s
    6405    6.0682719e+02   9.168569e+02   0.000000e+00     30s
    7572    6.0815569e+02   3.332341e+03   0.000000e+00     35s
    8836    6.1073211e+02   6.700542e+03   0.000000e+00     40s
    9942    6.1356063e+02   8.247216e+02   0.000000e+00     45s
   11127    6.1521469e+02   2.288268e+03   0.000000e+00     50s
   12312    6.1743778e+02   2.267727e+03   0.000000e+00     55s
   13418    6.1861516e+02   2.231244e+03   0.000000e+00     60s
   14445    6.1909188e+02   2.535073e+02   0.000000e+00     65s
   15709    6.1953275e+02   1.048353e+01   0.000000e+00     70s
   15826    6.1953462e+02   0.000000e+00   0.000000e+00     71s

Root relaxation: objective 6.195346e+02, 15826 iterations, 56.34 seconds

    Nodes    |    Current Node    |     Objective Bounds      |     Work
 Expl Unexpl |  Obj  Depth IntInf | Incumbent    BestBd   Gap | It/Node Time

     0     0  619.53462    0 1244 1140.00000  619.53462  45.7%     -   77s
     0     0  657.09482    0 1267 1140.00000  657.09482  42.4%     -  143s
     0     0  657.41243    0 1265 1140.00000  657.41243  42.3%     -  154s
     0     0  657.53250    0 1310 1140.00000  657.53250  42.3%     -  161s
     0     0  657.56183    0 1294 1140.00000  657.56183  42.3%     -  163s
     0     0  657.58301    0 1301 1140.00000  657.58301  42.3%     -  165s
     0     0  657.58391    0 1311 1140.00000  657.58391  42.3%     -  167s
     0     0  672.32989    0 1371 1140.00000  672.32989  41.0%     -  207s
     0     0  672.41372    0 1362 1140.00000  672.41372  41.0%     -  214s
     0     0  672.42176    0 1380 1140.00000  672.42176  41.0%     -  215s
     0     0  672.42207    0 1382 1140.00000  672.42207  41.0%     -  217s
     0     0  692.58741    0 1270 1140.00000  692.58741  39.2%     -  261s
     0     0  695.10695    0 1328 1140.00000  695.10695  39.0%     -  278s
     0     0  699.49936    0 1366 1140.00000  699.49936  38.6%     -  297s
     0     0  699.54254    0 1368 1140.00000  699.54254  38.6%     -  301s
     0     0  699.54662    0 1363 1140.00000  699.54662  38.6%     -  303s
     0     0  701.22841    0 1407 1140.00000  701.22841  38.5%     -  333s
     0     0  701.27840    0 1394 1140.00000  701.27840  38.5%     -  343s
     0     0  701.28194    0 1374 1140.00000  701.28194  38.5%     -  346s
     0     0  701.73815    0 1348 1140.00000  701.73815  38.4%     -  361s
     0     0  701.86537    0 1371 1140.00000  701.86537  38.4%     -  373s
     0     0  701.88158    0 1384 1140.00000  701.88158  38.4%     -  376s
     0     0  701.88158    0 1383 1140.00000  701.88158  38.4%     -  378s
     0     0  701.97836    0 1390 1140.00000  701.97836  38.4%     -  387s
     0     0  701.98162    0 1405 1140.00000  701.98162  38.4%     -  389s
     0     0  702.17323    0 1419 1140.00000  702.17323  38.4%     -  401s
     0     0  702.17968    0 1427 1140.00000  702.17968  38.4%     -  404s
     0     0  702.78641    0 1433 1140.00000  702.78641  38.4%     -  418s
     0     0  702.78703    0 1421 1140.00000  702.78703  38.4%     -  421s
     0     0  704.69637    0 1363 1140.00000  704.69637  38.2%     -  440s
     0     0  704.70374    0 1349 1140.00000  704.70374  38.2%     -  443s
     0     0  705.01768    0 1400 1140.00000  705.01768  38.2%     -  452s
     0     0  705.05465    0 1416 1140.00000  705.05465  38.2%     -  456s
     0     0  705.05845    0 1401 1140.00000  705.05845  38.2%     -  457s
     0     0  705.31737    0 1393 1140.00000  705.31737  38.1%     -  465s
     0     0  705.71435    0 1407 1140.00000  705.71435  38.1%     -  476s
     0     0  705.71648    0 1409 1140.00000  705.71648  38.1%     -  478s
     0     0  706.57418    0 1438 1140.00000  706.57418  38.0%     -  491s
     0     0  706.59613    0 1415 1140.00000  706.59613  38.0%     -  502s
     0     0  706.59613    0 1416 1140.00000  706.59613  38.0%     -  504s
     0     0  706.86774    0 1465 1140.00000  706.86774  38.0%     -  513s
     0     0  706.87011    0 1469 1140.00000  706.87011  38.0%     -  515s
     0     0  707.48410    0 1400 1140.00000  707.48410  37.9%     -  524s
     0     0  707.48648    0 1420 1140.00000  707.48648  37.9%     -  527s
     0     0  708.37281    0 1449 1140.00000  708.37281  37.9%     -  540s
     0     0  708.43180    0 1502 1140.00000  708.43180  37.9%     -  544s
     0     0  708.43891    0 1498 1140.00000  708.43891  37.9%     -  546s
     0     0  710.22367    0 1426 1140.00000  710.22367  37.7%     -  568s
     0     0  710.22819    0 1431 1140.00000  710.22819  37.7%     -  571s
     0     0  710.62566    0 1460 1140.00000  710.62566  37.7%     -  584s
     0     0  710.62771    0 1456 1140.00000  710.62771  37.7%     -  586s
     0     0  710.64105    0 1474 1140.00000  710.64105  37.7%     -  592s
     0     0  710.64141    0 1471 1140.00000  710.64141  37.7%     -  594s
     0     0  710.69579    0 1470 1140.00000  710.69579  37.7%     -  603s
     0     0  710.69579    0 1462 1140.00000  710.69579  37.7%     -  610s
H    0     0                    1135.0000000  710.69579  37.4%     -  774s
     0     2  710.69627    0 1462 1135.00000  710.69627  37.4%     -  774s
     1     3  711.72496    1 1426 1135.00000  710.69884  37.4%  2244  792s
     2     4  718.85477    1 1291 1135.00000  711.72496  37.3%  5649  854s
     3     5  711.73442    2 1455 1135.00000  711.72496  37.3%  3822  856s
     4     6  724.29317    2 1330 1135.00000  711.73442  37.3%  5385  925s
     5     7  711.80508    3 1447 1135.00000  711.73442  37.3%  4488  931s
     6     8  731.68021    3 1232 1135.00000  711.80560  37.3%  6153 1018s
     7     9  712.00938    4 1490 1135.00000  711.81221  37.3%  5377 1023s
     8    10  743.62532    5 1168 1135.00000  711.81221  37.3% 11274 1325s
    10    12  743.43575    6 1232 1135.00000  711.81221  37.3% 11128 1424s
    11    13  712.65553    6 1411 1135.00000  711.81221  37.3% 10280 1435s
    12    14  738.03755    7 1276 1135.00000  711.81221  37.3% 10388 1498s
    13    15  712.84632    7 1403 1135.00000  711.81221  37.3%  9670 1504s
    14    16  733.68619    8 1218 1135.00000  711.81221  37.3% 10627 1600s
    15    17  712.99274    8 1404 1135.00000  711.81221  37.3%  9985 1606s
    16    18  713.07014    9 1344 1135.00000  711.81221  37.3%  9425 1611s
    17    19  749.98387    9 1150 1135.00000  711.81221  37.3% 10139 1699s
    18    20  713.62787   10 1372 1135.00000  711.81221  37.3%  9644 1708s
    19    21  736.90221   10 1271 1135.00000  711.81221  37.3% 10245 1827s
    20    22  713.78250   11 1389 1135.00000  711.81221  37.3%  9771 1832s
    21    23  728.73542   11 1244 1135.00000  711.81221  37.3%  9895 1905s
    22    24  713.96333   12 1342 1135.00000  711.81221  37.3%  9498 1911s
    23    25  737.66832   12 1156 1135.00000  711.81221  37.3%  9624 1973s
    24    26  714.17723   13 1328 1135.00000  711.81221  37.3%  9253 1978s
    25    27  730.62471   13 1254 1135.00000  711.81221  37.3%  9625 2087s
    26    28  714.59388   14 1327 1135.00000  711.81221  37.3%  9304 2093s
H   27    27                    1134.0000000  711.81221  37.2%  8960 2188s
    28    30  716.02470   15 1398 1134.00000  711.81221  37.2%  9353 2205s
    29    31  742.91461   15 1181 1134.00000  711.81221  37.2%  9600 2307s
    30    32  717.63360   16 1327 1134.00000  711.81221  37.2%  9358 2319s
    31    33  737.24366   17 1187 1134.00000  711.81221  37.2%  9574 2390s
    32    34  717.86673   17 1316 1134.00000  711.81221  37.2%  9306 2397s
    33    35  718.31947   18 1325 1134.00000  711.81221  37.2%  9047 2402s
    34    36  747.31555   19 1160 1134.00000  711.81221  37.2%  9399 2526s
    36    38  745.75447   20 1165 1134.00000  711.81221  37.2%  9208 2585s
    38    40  719.12734   21 1327 1134.00000  711.81221  37.2%  8756 2594s
    39    41  720.38579   22 1360 1134.00000  711.81221  37.2%  8562 2602s
    40    42  736.48747   23 1275 1134.00000  711.81221  37.2%  8599 2663s
    41    43  720.44177   23 1340 1134.00000  711.81221  37.2%  8399 2665s
    42    44  721.18898   24 1303 1134.00000  711.81221  37.2%  8226 2673s
    43    45  734.61906   24 1164 1134.00000  711.81221  37.2%  8266 2734s
    44    46  722.11193   25 1330 1134.00000  711.81221  37.2%  8104 2740s
    45    47  738.83868   25 1285 1134.00000  711.81221  37.2%  8228 2826s
    47    49  722.75430   27 1343 1134.00000  711.81221  37.2%  7926 2837s
    48    50  753.74337   27 1133 1134.00000  711.81221  37.2%  8043 2896s
    49    51  723.47926   28 1372 1134.00000  711.81221  37.2%  7908 2905s
    50    52  746.36720   28 1253 1134.00000  711.81221  37.2%  8048 2991s
    51    53  723.57977   29 1312 1134.00000  711.81221  37.2%  7903 2995s
    52    54  744.66480   29 1199 1134.00000  711.81221  37.2%  7916 3039s
    53    55  723.68690   30 1326 1134.00000  711.81221  37.2%  7778 3042s
    54    56  736.03001   31 1244 1134.00000  711.81221  37.2%  7768 3099s
    55    57  723.74617   31 1322 1134.00000  711.81221  37.2%  7634 3101s
    57    59  739.83126   33 1212 1134.00000  711.81221  37.2%  7555 3165s
    58    60  724.25266   33 1285 1134.00000  711.81221  37.2%  7443 3170s
    59    61  724.45304   34 1255 1134.00000  711.81221  37.2%  7330 3175s
    61    63  739.11311   36 1258 1134.00000  711.81221  37.2%  7262 3223s
    62    64  724.72533   36 1230 1134.00000  711.81221  37.2%  7158 3229s
    63    65  737.27726   37 1221 1134.00000  711.81221  37.2%  7145 3265s
    65    67  724.88197   38 1256 1134.00000  711.81221  37.2%  6937 3270s
    66    68  737.22251   38 1242 1134.00000  711.81221  37.2%  6940 3312s
    67    69  724.97004   39 1248 1134.00000  711.81221  37.2%  6843 3316s
    68    70  736.05317   39 1211 1134.00000  711.81221  37.2%  6839 3348s
    69    71  725.10088   40 1226 1134.00000  711.81221  37.2%  6745 3350s
    70    72  735.17624   40 1190 1134.00000  711.81221  37.2%  6801 3417s
    71    73  725.87620   41 1250 1134.00000  711.81221  37.2%  6725 3424s
    72    74  734.40025   41 1222 1134.00000  711.81221  37.2%  6738 3460s
    73    75  726.25949   42 1303 1134.00000  711.81221  37.2%  6655 3465s
    74    76  738.07981   42 1184 1134.00000  711.81221  37.2%  6697 3520s
    75    77  726.54809   43 1302 1134.00000  711.81221  37.2%  6622 3526s
    76    78  743.39548   43 1163 1134.00000  711.81221  37.2%  6621 3557s
    77    79  726.83362   44 1291 1134.00000  711.81221  37.2%  6541 3560s

Cutting planes:
  Cover: 6
  MIR: 79
  StrongCG: 15
  Zero half: 50
  Mod-K: 2
  RLT: 45

Explored 78 nodes (577740 simplex iterations) in 3600.03 seconds
Thread count was 1 (of 40 available processors)

Solution count 3: 1134 1135 1140 

Time limit reached
Best objective 1.134000000000e+03, best bound 7.120000000000e+02, gap 37.2134%

User-callback calls 39277, time in user-callback 0.13 sec
